time,p0,stress_xx,stress_yy,stress_zz,total_porosity,zdisp
1,0.01,-120.06,-120.06,-360.18,0.1,-0.001
2,0.02,-240.24,-240.24,-720.72,0.1,-0.002
3,0.03,-360.54,-360.54,-1081.62,0.1,-0.003
4,0.04,-480.96,-480.96,-1442.88,0.1,-0.004
5,0.05,-601.5,-601.5,-1804.5,0.1,-0.005
6,0.06,-722.16,-722.16,-2166.48,0.1,-0.006
7,0.07,-842.94,-842.94,-2528.82,0.1,-0.007
8,0.08,-963.84,-963.84,-2891.52,0.1,-0.008
9,0.09,-1084.86,-1084.86,-3254.58,0.1,-0.009
10,0.1,-1206,-1206,-3618,0.1,-0.01